c File: data_files/evolved_graphs/g3621.col
c
c Auto generated graph
c
p edge 100 2210
e 1 2
e 1 3
e 1 5
e 1 6
e 1 8
e 1 28
e 1 41
e 1 64
e 1 76
e 1 84
e 1 93
e 2 3
e 2 6
e 2 7
e 2 8
e 2 9
e 2 81
e 2 91
e 2 93
e 3 4
e 3 7
e 3 8
e 3 45
e 3 53
e 3 75
e 3 84
e 4 7
e 4 8
e 4 9
e 4 24
e 4 67
e 4 72
e 4 78
e 4 87
e 4 88
e 4 91
e 4 94
e 5 6
e 5 7
e 5 9
e 5 14
e 5 22
e 5 52
e 5 88
e 5 94
e 6 8
e 6 46
e 6 47
e 6 62
e 6 68
e 6 78
e 6 86
e 6 98
e 7 8
e 7 59
e 7 74
e 7 92
e 7 98
e 8 79
e 8 84
e 8 96
e 9 38
e 9 68
e 9 69
e 9 70
e 9 72
e 9 73
e 9 74
e 9 76
e 9 77
e 9 78
e 9 79
e 9 81
e 9 82
e 9 84
e 9 87
e 9 89
e 9 92
e 9 93
e 9 95
e 9 98
e 9 99
e 10 11
e 10 12
e 10 14
e 10 15
e 10 18
e 10 21
e 10 22
e 10 25
e 10 26
e 10 27
e 10 28
e 10 29
e 10 31
e 10 35
e 10 38
e 10 40
e 10 41
e 10 44
e 10 47
e 10 50
e 10 55
e 10 56
e 10 60
e 10 61
e 10 64
e 10 68
e 10 69
e 10 70
e 10 71
e 10 72
e 10 73
e 10 74
e 10 75
e 10 78
e 10 79
e 10 80
e 10 81
e 10 83
e 10 84
e 10 85
e 10 86
e 10 87
e 10 89
e 10 91
e 10 93
e 10 94
e 10 98
e 10 100
e 11 12
e 11 14
e 11 15
e 11 16
e 11 18
e 11 19
e 11 21
e 11 22
e 11 23
e 11 26
e 11 30
e 11 31
e 11 32
e 11 35
e 11 36
e 11 37
e 11 38
e 11 39
e 11 45
e 11 46
e 11 49
e 11 50
e 11 52
e 11 55
e 11 56
e 11 58
e 11 61
e 11 63
e 11 64
e 11 66
e 11 69
e 11 70
e 11 72
e 11 73
e 11 74
e 11 79
e 11 81
e 11 82
e 11 83
e 11 84
e 11 85
e 11 87
e 11 97
e 11 98
e 11 99
e 12 13
e 12 15
e 12 16
e 12 19
e 12 20
e 12 21
e 12 23
e 12 25
e 12 26
e 12 27
e 12 29
e 12 30
e 12 31
e 12 32
e 12 33
e 12 34
e 12 35
e 12 36
e 12 39
e 12 43
e 12 45
e 12 48
e 12 49
e 12 51
e 12 52
e 12 53
e 12 54
e 12 55
e 12 58
e 12 59
e 12 61
e 12 65
e 12 66
e 12 67
e 12 71
e 12 72
e 12 76
e 12 77
e 12 78
e 12 79
e 12 81
e 12 82
e 12 88
e 12 89
e 12 95
e 12 99
e 13 20
e 13 21
e 13 28
e 13 31
e 13 34
e 13 35
e 13 36
e 13 38
e 13 39
e 13 42
e 13 43
e 13 45
e 13 47
e 13 48
e 13 50
e 13 51
e 13 52
e 13 53
e 13 56
e 13 58
e 13 59
e 13 60
e 13 61
e 13 63
e 13 65
e 13 66
e 13 68
e 13 69
e 13 75
e 13 76
e 13 78
e 13 82
e 13 85
e 13 86
e 13 90
e 13 95
e 13 98
e 13 100
e 14 19
e 14 21
e 14 23
e 14 26
e 14 27
e 14 29
e 14 30
e 14 32
e 14 36
e 14 41
e 14 44
e 14 45
e 14 46
e 14 49
e 14 51
e 14 52
e 14 54
e 14 57
e 14 58
e 14 60
e 14 61
e 14 62
e 14 64
e 14 67
e 14 68
e 14 69
e 14 70
e 14 74
e 14 76
e 14 77
e 14 79
e 14 80
e 14 81
e 14 82
e 14 83
e 14 85
e 14 87
e 14 94
e 14 98
e 15 16
e 15 18
e 15 20
e 15 21
e 15 23
e 15 29
e 15 31
e 15 32
e 15 36
e 15 37
e 15 39
e 15 40
e 15 42
e 15 45
e 15 48
e 15 50
e 15 52
e 15 53
e 15 54
e 15 55
e 15 57
e 15 58
e 15 59
e 15 60
e 15 61
e 15 62
e 15 63
e 15 66
e 15 67
e 15 70
e 15 71
e 15 72
e 15 74
e 15 77
e 15 79
e 15 80
e 15 81
e 15 83
e 15 84
e 15 87
e 15 88
e 15 92
e 15 96
e 15 97
e 15 98
e 16 19
e 16 21
e 16 23
e 16 25
e 16 26
e 16 27
e 16 29
e 16 30
e 16 32
e 16 34
e 16 36
e 16 39
e 16 40
e 16 44
e 16 46
e 16 48
e 16 52
e 16 53
e 16 54
e 16 55
e 16 58
e 16 59
e 16 60
e 16 64
e 16 65
e 16 66
e 16 70
e 16 71
e 16 76
e 16 77
e 16 78
e 16 81
e 16 85
e 16 86
e 16 87
e 16 89
e 16 90
e 16 92
e 16 93
e 16 94
e 16 96
e 16 97
e 16 98
e 16 100
e 17 19
e 17 20
e 17 21
e 17 22
e 17 23
e 17 24
e 17 25
e 17 26
e 17 28
e 17 29
e 17 31
e 17 33
e 17 38
e 17 40
e 17 41
e 17 43
e 17 46
e 17 47
e 17 48
e 17 50
e 17 54
e 17 60
e 17 62
e 17 63
e 17 64
e 17 66
e 17 68
e 17 70
e 17 71
e 17 72
e 17 73
e 17 74
e 17 76
e 17 78
e 17 80
e 17 84
e 17 89
e 17 90
e 17 91
e 17 92
e 17 95
e 17 99
e 18 19
e 18 20
e 18 21
e 18 23
e 18 25
e 18 28
e 18 29
e 18 30
e 18 31
e 18 35
e 18 36
e 18 38
e 18 39
e 18 40
e 18 42
e 18 43
e 18 47
e 18 51
e 18 52
e 18 53
e 18 55
e 18 56
e 18 60
e 18 61
e 18 62
e 18 63
e 18 65
e 18 66
e 18 67
e 18 68
e 18 69
e 18 71
e 18 73
e 18 78
e 18 80
e 18 81
e 18 82
e 18 83
e 18 85
e 18 86
e 18 87
e 18 89
e 18 90
e 18 92
e 18 93
e 18 96
e 18 99
e 19 20
e 19 21
e 19 22
e 19 23
e 19 28
e 19 29
e 19 30
e 19 31
e 19 33
e 19 34
e 19 36
e 19 37
e 19 45
e 19 48
e 19 52
e 19 53
e 19 54
e 19 55
e 19 56
e 19 57
e 19 58
e 19 61
e 19 62
e 19 67
e 19 70
e 19 73
e 19 74
e 19 75
e 19 78
e 19 79
e 19 81
e 19 82
e 19 86
e 19 89
e 19 91
e 19 95
e 19 96
e 19 97
e 19 99
e 20 23
e 20 25
e 20 26
e 20 27
e 20 28
e 20 29
e 20 30
e 20 33
e 20 35
e 20 36
e 20 38
e 20 42
e 20 43
e 20 44
e 20 45
e 20 46
e 20 47
e 20 50
e 20 53
e 20 54
e 20 55
e 20 56
e 20 57
e 20 58
e 20 59
e 20 60
e 20 61
e 20 62
e 20 63
e 20 64
e 20 65
e 20 67
e 20 71
e 20 73
e 20 75
e 20 76
e 20 78
e 20 79
e 20 80
e 20 83
e 20 85
e 20 87
e 20 88
e 20 89
e 20 99
e 20 100
e 21 22
e 21 23
e 21 27
e 21 28
e 21 31
e 21 33
e 21 34
e 21 37
e 21 39
e 21 41
e 21 45
e 21 46
e 21 47
e 21 50
e 21 52
e 21 54
e 21 55
e 21 59
e 21 62
e 21 63
e 21 64
e 21 67
e 21 68
e 21 74
e 21 75
e 21 76
e 21 77
e 21 82
e 21 83
e 21 85
e 21 89
e 21 94
e 21 97
e 21 99
e 22 23
e 22 26
e 22 27
e 22 29
e 22 32
e 22 34
e 22 38
e 22 39
e 22 40
e 22 41
e 22 42
e 22 44
e 22 45
e 22 46
e 22 48
e 22 51
e 22 53
e 22 56
e 22 57
e 22 58
e 22 59
e 22 60
e 22 66
e 22 72
e 22 73
e 22 76
e 22 78
e 22 79
e 22 80
e 22 81
e 22 82
e 22 83
e 22 85
e 22 86
e 22 87
e 22 88
e 22 89
e 22 90
e 22 93
e 22 95
e 22 96
e 22 99
e 23 25
e 23 27
e 23 28
e 23 30
e 23 33
e 23 37
e 23 38
e 23 39
e 23 41
e 23 42
e 23 44
e 23 45
e 23 47
e 23 49
e 23 50
e 23 53
e 23 55
e 23 57
e 23 58
e 23 59
e 23 62
e 23 65
e 23 69
e 23 73
e 23 76
e 23 77
e 23 79
e 23 80
e 23 81
e 23 82
e 23 83
e 23 86
e 23 88
e 23 90
e 23 92
e 23 93
e 23 95
e 23 97
e 24 25
e 24 28
e 24 32
e 24 33
e 24 37
e 24 39
e 24 40
e 24 41
e 24 44
e 24 46
e 24 47
e 24 49
e 24 50
e 24 51
e 24 53
e 24 54
e 24 55
e 24 56
e 24 57
e 24 59
e 24 60
e 24 61
e 24 62
e 24 63
e 24 64
e 24 65
e 24 67
e 24 71
e 24 72
e 24 73
e 24 74
e 24 75
e 24 77
e 24 79
e 24 81
e 24 82
e 24 84
e 24 85
e 24 86
e 24 87
e 24 88
e 24 90
e 24 91
e 24 92
e 24 94
e 24 96
e 24 99
e 24 100
e 25 26
e 25 27
e 25 29
e 25 30
e 25 33
e 25 34
e 25 37
e 25 39
e 25 40
e 25 42
e 25 43
e 25 44
e 25 45
e 25 46
e 25 48
e 25 49
e 25 50
e 25 53
e 25 54
e 25 57
e 25 58
e 25 61
e 25 62
e 25 63
e 25 64
e 25 66
e 25 68
e 25 69
e 25 70
e 25 71
e 25 74
e 25 75
e 25 76
e 25 81
e 25 82
e 25 83
e 25 84
e 25 85
e 25 87
e 25 89
e 25 92
e 25 93
e 25 94
e 25 96
e 25 100
e 26 27
e 26 28
e 26 31
e 26 33
e 26 34
e 26 37
e 26 39
e 26 40
e 26 43
e 26 44
e 26 45
e 26 46
e 26 47
e 26 49
e 26 50
e 26 51
e 26 52
e 26 53
e 26 56
e 26 61
e 26 62
e 26 63
e 26 64
e 26 65
e 26 67
e 26 68
e 26 69
e 26 75
e 26 77
e 26 78
e 26 79
e 26 80
e 26 82
e 26 84
e 26 85
e 26 87
e 26 89
e 26 90
e 26 92
e 26 94
e 26 100
e 27 29
e 27 30
e 27 31
e 27 33
e 27 34
e 27 35
e 27 37
e 27 38
e 27 39
e 27 41
e 27 42
e 27 44
e 27 45
e 27 46
e 27 49
e 27 50
e 27 54
e 27 56
e 27 59
e 27 66
e 27 68
e 27 69
e 27 71
e 27 72
e 27 75
e 27 77
e 27 80
e 27 81
e 27 82
e 27 85
e 27 89
e 27 90
e 27 92
e 27 93
e 27 95
e 27 100
e 28 29
e 28 30
e 28 35
e 28 36
e 28 37
e 28 38
e 28 39
e 28 40
e 28 41
e 28 44
e 28 45
e 28 46
e 28 48
e 28 49
e 28 50
e 28 51
e 28 52
e 28 54
e 28 56
e 28 57
e 28 60
e 28 61
e 28 63
e 28 64
e 28 65
e 28 66
e 28 68
e 28 69
e 28 70
e 28 71
e 28 72
e 28 75
e 28 77
e 28 78
e 28 80
e 28 83
e 28 87
e 28 88
e 28 89
e 28 96
e 28 98
e 29 30
e 29 31
e 29 33
e 29 35
e 29 38
e 29 44
e 29 45
e 29 47
e 29 49
e 29 50
e 29 51
e 29 54
e 29 55
e 29 58
e 29 59
e 29 61
e 29 63
e 29 64
e 29 65
e 29 66
e 29 72
e 29 73
e 29 77
e 29 82
e 29 84
e 29 86
e 29 88
e 29 90
e 29 94
e 29 97
e 29 99
e 29 100
e 30 32
e 30 33
e 30 34
e 30 35
e 30 37
e 30 39
e 30 40
e 30 42
e 30 44
e 30 49
e 30 50
e 30 51
e 30 52
e 30 53
e 30 54
e 30 55
e 30 59
e 30 60
e 30 62
e 30 63
e 30 65
e 30 67
e 30 70
e 30 71
e 30 72
e 30 75
e 30 76
e 30 78
e 30 79
e 30 80
e 30 83
e 30 84
e 30 89
e 30 90
e 30 91
e 30 95
e 30 96
e 30 98
e 30 99
e 31 33
e 31 34
e 31 35
e 31 37
e 31 38
e 31 41
e 31 42
e 31 43
e 31 44
e 31 45
e 31 48
e 31 49
e 31 50
e 31 54
e 31 56
e 31 57
e 31 58
e 31 59
e 31 61
e 31 64
e 31 67
e 31 68
e 31 69
e 31 72
e 31 73
e 31 74
e 31 76
e 31 77
e 31 78
e 31 79
e 31 80
e 31 81
e 31 83
e 31 85
e 31 86
e 31 88
e 31 92
e 31 93
e 31 94
e 31 95
e 31 100
e 32 33
e 32 34
e 32 35
e 32 36
e 32 39
e 32 44
e 32 45
e 32 49
e 32 51
e 32 52
e 32 55
e 32 56
e 32 58
e 32 59
e 32 61
e 32 63
e 32 66
e 32 67
e 32 68
e 32 69
e 32 72
e 32 73
e 32 76
e 32 78
e 32 82
e 32 83
e 32 85
e 32 87
e 32 89
e 32 90
e 32 95
e 32 96
e 32 98
e 32 100
e 33 34
e 33 36
e 33 37
e 33 38
e 33 40
e 33 41
e 33 42
e 33 43
e 33 44
e 33 45
e 33 48
e 33 52
e 33 53
e 33 54
e 33 55
e 33 57
e 33 59
e 33 61
e 33 62
e 33 64
e 33 66
e 33 67
e 33 69
e 33 70
e 33 71
e 33 75
e 33 76
e 33 79
e 33 80
e 33 82
e 33 86
e 33 88
e 33 91
e 33 93
e 33 95
e 33 97
e 34 35
e 34 36
e 34 40
e 34 42
e 34 44
e 34 45
e 34 46
e 34 47
e 34 48
e 34 49
e 34 50
e 34 52
e 34 53
e 34 58
e 34 59
e 34 60
e 34 62
e 34 64
e 34 67
e 34 69
e 34 70
e 34 71
e 34 75
e 34 76
e 34 77
e 34 78
e 34 79
e 34 80
e 34 81
e 34 82
e 34 83
e 34 84
e 34 86
e 34 89
e 34 91
e 34 92
e 34 93
e 34 96
e 34 100
e 35 38
e 35 39
e 35 40
e 35 43
e 35 48
e 35 50
e 35 53
e 35 55
e 35 58
e 35 59
e 35 63
e 35 65
e 35 66
e 35 67
e 35 70
e 35 72
e 35 73
e 35 74
e 35 77
e 35 79
e 35 80
e 35 81
e 35 84
e 35 85
e 35 87
e 35 92
e 35 94
e 35 97
e 36 37
e 36 38
e 36 39
e 36 40
e 36 42
e 36 44
e 36 47
e 36 53
e 36 55
e 36 56
e 36 58
e 36 62
e 36 65
e 36 66
e 36 68
e 36 74
e 36 75
e 36 77
e 36 79
e 36 80
e 36 82
e 36 83
e 36 84
e 36 85
e 36 86
e 36 87
e 36 93
e 36 94
e 36 100
e 37 39
e 37 40
e 37 42
e 37 44
e 37 45
e 37 46
e 37 48
e 37 51
e 37 55
e 37 56
e 37 59
e 37 60
e 37 63
e 37 65
e 37 66
e 37 67
e 37 68
e 37 69
e 37 71
e 37 72
e 37 73
e 37 74
e 37 75
e 37 76
e 37 77
e 37 79
e 37 80
e 37 81
e 37 85
e 37 87
e 37 88
e 37 89
e 37 90
e 37 91
e 37 93
e 37 96
e 37 98
e 37 100
e 38 41
e 38 45
e 38 47
e 38 49
e 38 53
e 38 54
e 38 55
e 38 57
e 38 58
e 38 59
e 38 62
e 38 63
e 38 64
e 38 65
e 38 72
e 38 73
e 38 74
e 38 76
e 38 77
e 38 78
e 38 79
e 38 80
e 38 82
e 38 83
e 38 84
e 38 86
e 38 87
e 38 98
e 38 99
e 38 100
e 39 40
e 39 46
e 39 47
e 39 48
e 39 49
e 39 50
e 39 54
e 39 55
e 39 56
e 39 57
e 39 60
e 39 61
e 39 62
e 39 64
e 39 65
e 39 68
e 39 69
e 39 71
e 39 72
e 39 73
e 39 76
e 39 80
e 39 81
e 39 83
e 39 86
e 39 91
e 39 92
e 39 97
e 39 99
e 40 42
e 40 46
e 40 48
e 40 51
e 40 52
e 40 53
e 40 54
e 40 55
e 40 56
e 40 57
e 40 58
e 40 59
e 40 60
e 40 61
e 40 62
e 40 63
e 40 65
e 40 69
e 40 70
e 40 72
e 40 73
e 40 77
e 40 80
e 40 82
e 40 84
e 40 85
e 40 88
e 40 89
e 40 90
e 40 96
e 40 98
e 40 99
e 41 42
e 41 43
e 41 44
e 41 45
e 41 48
e 41 49
e 41 50
e 41 51
e 41 52
e 41 54
e 41 55
e 41 56
e 41 58
e 41 65
e 41 66
e 41 70
e 41 71
e 41 73
e 41 77
e 41 80
e 41 83
e 41 84
e 41 85
e 41 86
e 41 87
e 41 91
e 41 92
e 41 93
e 41 98
e 41 100
e 42 43
e 42 46
e 42 48
e 42 49
e 42 51
e 42 53
e 42 58
e 42 59
e 42 61
e 42 63
e 42 65
e 42 68
e 42 69
e 42 71
e 42 72
e 42 73
e 42 74
e 42 75
e 42 79
e 42 80
e 42 82
e 42 83
e 42 87
e 42 88
e 42 89
e 42 91
e 42 94
e 42 95
e 42 97
e 42 100
e 43 44
e 43 46
e 43 48
e 43 50
e 43 52
e 43 53
e 43 54
e 43 57
e 43 59
e 43 60
e 43 63
e 43 64
e 43 65
e 43 68
e 43 72
e 43 74
e 43 75
e 43 76
e 43 77
e 43 80
e 43 81
e 43 82
e 43 83
e 43 86
e 43 87
e 43 89
e 43 90
e 43 91
e 43 92
e 43 94
e 43 96
e 43 97
e 43 99
e 43 100
e 44 47
e 44 48
e 44 49
e 44 52
e 44 53
e 44 55
e 44 56
e 44 58
e 44 60
e 44 61
e 44 62
e 44 64
e 44 66
e 44 69
e 44 75
e 44 76
e 44 80
e 44 82
e 44 84
e 44 85
e 44 87
e 44 88
e 44 89
e 44 90
e 44 91
e 44 93
e 44 95
e 44 96
e 44 97
e 44 100
e 45 46
e 45 47
e 45 49
e 45 50
e 45 51
e 45 52
e 45 53
e 45 54
e 45 55
e 45 57
e 45 58
e 45 61
e 45 64
e 45 65
e 45 66
e 45 68
e 45 69
e 45 70
e 45 71
e 45 72
e 45 74
e 45 75
e 45 80
e 45 83
e 45 88
e 45 96
e 46 49
e 46 51
e 46 53
e 46 57
e 46 63
e 46 66
e 46 68
e 46 70
e 46 71
e 46 72
e 46 73
e 46 74
e 46 76
e 46 78
e 46 81
e 46 82
e 46 83
e 46 84
e 46 87
e 46 89
e 46 91
e 46 93
e 46 94
e 46 96
e 46 97
e 46 100
e 47 51
e 47 52
e 47 54
e 47 55
e 47 58
e 47 62
e 47 64
e 47 65
e 47 66
e 47 68
e 47 70
e 47 71
e 47 72
e 47 73
e 47 75
e 47 76
e 47 77
e 47 78
e 47 79
e 47 80
e 47 82
e 47 84
e 47 87
e 47 89
e 47 91
e 47 93
e 47 95
e 47 96
e 47 98
e 48 50
e 48 51
e 48 52
e 48 55
e 48 57
e 48 58
e 48 59
e 48 61
e 48 62
e 48 64
e 48 65
e 48 66
e 48 70
e 48 72
e 48 74
e 48 76
e 48 77
e 48 79
e 48 80
e 48 82
e 48 83
e 48 85
e 48 86
e 48 87
e 48 89
e 48 93
e 48 94
e 48 96
e 48 97
e 49 51
e 49 53
e 49 54
e 49 55
e 49 56
e 49 58
e 49 59
e 49 60
e 49 62
e 49 63
e 49 64
e 49 65
e 49 66
e 49 68
e 49 69
e 49 70
e 49 71
e 49 73
e 49 76
e 49 78
e 49 81
e 49 82
e 49 85
e 49 89
e 49 93
e 49 94
e 49 99
e 50 51
e 50 52
e 50 54
e 50 55
e 50 58
e 50 59
e 50 60
e 50 64
e 50 66
e 50 67
e 50 69
e 50 73
e 50 74
e 50 75
e 50 77
e 50 78
e 50 80
e 50 81
e 50 84
e 50 86
e 50 87
e 50 88
e 50 89
e 50 93
e 50 94
e 50 97
e 51 52
e 51 54
e 51 56
e 51 57
e 51 61
e 51 62
e 51 65
e 51 66
e 51 67
e 51 69
e 51 70
e 51 71
e 51 72
e 51 73
e 51 78
e 51 79
e 51 80
e 51 81
e 51 83
e 51 84
e 51 85
e 51 86
e 51 87
e 51 88
e 51 89
e 51 93
e 51 95
e 51 96
e 51 97
e 51 99
e 52 53
e 52 54
e 52 56
e 52 57
e 52 59
e 52 60
e 52 64
e 52 65
e 52 66
e 52 67
e 52 69
e 52 70
e 52 71
e 52 73
e 52 75
e 52 76
e 52 78
e 52 84
e 52 85
e 52 86
e 52 87
e 52 89
e 52 91
e 52 93
e 52 94
e 52 95
e 52 97
e 52 99
e 53 54
e 53 57
e 53 61
e 53 62
e 53 63
e 53 71
e 53 72
e 53 73
e 53 75
e 53 76
e 53 77
e 53 80
e 53 81
e 53 83
e 53 84
e 53 87
e 53 91
e 53 92
e 53 93
e 53 94
e 53 95
e 53 96
e 54 55
e 54 56
e 54 60
e 54 61
e 54 62
e 54 63
e 54 65
e 54 66
e 54 71
e 54 72
e 54 75
e 54 76
e 54 80
e 54 81
e 54 82
e 54 84
e 54 85
e 54 86
e 54 87
e 54 88
e 54 89
e 54 92
e 54 93
e 54 96
e 55 57
e 55 58
e 55 59
e 55 63
e 55 67
e 55 69
e 55 70
e 55 72
e 55 74
e 55 76
e 55 78
e 55 80
e 55 83
e 55 85
e 55 89
e 55 90
e 55 91
e 55 95
e 55 96
e 55 97
e 55 99
e 56 58
e 56 59
e 56 60
e 56 61
e 56 63
e 56 64
e 56 65
e 56 67
e 56 69
e 56 71
e 56 72
e 56 74
e 56 75
e 56 77
e 56 78
e 56 80
e 56 82
e 56 83
e 56 84
e 56 88
e 56 94
e 56 96
e 56 98
e 56 100
e 57 59
e 57 62
e 57 65
e 57 67
e 57 69
e 57 71
e 57 72
e 57 73
e 57 77
e 57 79
e 57 80
e 57 81
e 57 84
e 57 85
e 57 90
e 57 91
e 57 93
e 57 94
e 57 96
e 57 98
e 58 59
e 58 60
e 58 64
e 58 65
e 58 67
e 58 69
e 58 72
e 58 73
e 58 74
e 58 77
e 58 79
e 58 82
e 58 84
e 58 85
e 58 87
e 58 92
e 58 93
e 58 94
e 58 95
e 58 96
e 58 97
e 58 100
e 59 61
e 59 63
e 59 66
e 59 67
e 59 69
e 59 75
e 59 77
e 59 78
e 59 79
e 59 80
e 59 81
e 59 83
e 59 84
e 59 86
e 59 87
e 59 88
e 59 89
e 59 93
e 59 94
e 59 96
e 59 99
e 60 61
e 60 63
e 60 65
e 60 68
e 60 69
e 60 75
e 60 78
e 60 79
e 60 80
e 60 82
e 60 83
e 60 85
e 60 91
e 60 92
e 60 99
e 61 63
e 61 64
e 61 65
e 61 67
e 61 68
e 61 69
e 61 71
e 61 76
e 61 77
e 61 78
e 61 81
e 61 82
e 61 84
e 61 85
e 61 87
e 61 89
e 61 90
e 61 91
e 61 92
e 61 93
e 61 99
e 62 66
e 62 67
e 62 68
e 62 69
e 62 70
e 62 72
e 62 78
e 62 80
e 62 81
e 62 82
e 62 84
e 62 85
e 62 86
e 62 88
e 62 92
e 62 97
e 62 100
e 63 68
e 63 69
e 63 70
e 63 75
e 63 76
e 63 78
e 63 81
e 63 83
e 63 88
e 63 92
e 63 98
e 63 99
e 64 65
e 64 66
e 64 67
e 64 70
e 64 71
e 64 72
e 64 73
e 64 74
e 64 75
e 64 76
e 64 78
e 64 80
e 64 84
e 64 86
e 64 92
e 64 93
e 64 95
e 64 96
e 64 97
e 64 98
e 64 100
e 65 67
e 65 68
e 65 69
e 65 71
e 65 73
e 65 76
e 65 77
e 65 79
e 65 80
e 65 81
e 65 82
e 65 83
e 65 84
e 65 85
e 65 86
e 65 87
e 65 88
e 65 95
e 65 96
e 66 67
e 66 70
e 66 73
e 66 75
e 66 76
e 66 77
e 66 80
e 66 82
e 66 83
e 66 84
e 66 86
e 66 87
e 66 89
e 66 91
e 66 94
e 66 99
e 67 69
e 67 71
e 67 73
e 67 74
e 67 77
e 67 78
e 67 79
e 67 80
e 67 81
e 67 83
e 67 87
e 67 90
e 67 92
e 67 93
e 67 95
e 67 97
e 67 99
e 68 70
e 68 71
e 68 72
e 68 75
e 68 76
e 68 79
e 68 80
e 68 81
e 68 83
e 68 84
e 68 85
e 68 87
e 68 89
e 68 90
e 68 95
e 68 96
e 68 98
e 68 99
e 68 100
e 69 70
e 69 71
e 69 73
e 69 74
e 69 77
e 69 78
e 69 79
e 69 80
e 69 82
e 69 87
e 69 89
e 69 90
e 69 91
e 69 92
e 69 93
e 69 94
e 69 95
e 69 100
e 70 71
e 70 75
e 70 76
e 70 77
e 70 78
e 70 80
e 70 81
e 70 82
e 70 83
e 70 89
e 70 92
e 70 93
e 70 96
e 70 98
e 70 99
e 70 100
e 71 73
e 71 74
e 71 75
e 71 78
e 71 80
e 71 81
e 71 82
e 71 84
e 71 85
e 71 86
e 71 90
e 71 91
e 71 94
e 71 95
e 71 97
e 71 98
e 71 99
e 71 100
e 72 73
e 72 76
e 72 77
e 72 78
e 72 80
e 72 82
e 72 85
e 72 88
e 72 90
e 72 91
e 72 92
e 72 93
e 72 94
e 72 95
e 73 76
e 73 79
e 73 80
e 73 81
e 73 82
e 73 84
e 73 86
e 73 88
e 73 89
e 73 90
e 73 92
e 73 93
e 73 97
e 73 98
e 74 75
e 74 78
e 74 79
e 74 80
e 74 81
e 74 85
e 74 86
e 74 87
e 74 88
e 74 92
e 74 94
e 74 98
e 75 77
e 75 78
e 75 81
e 75 82
e 75 83
e 75 85
e 75 89
e 75 91
e 75 92
e 75 93
e 75 94
e 75 96
e 75 97
e 75 98
e 76 79
e 76 80
e 76 85
e 76 87
e 76 88
e 76 89
e 76 90
e 76 91
e 76 92
e 76 95
e 76 96
e 76 98
e 77 79
e 77 82
e 77 83
e 77 84
e 77 85
e 77 86
e 77 88
e 77 90
e 77 92
e 77 94
e 77 97
e 77 98
e 77 99
e 78 80
e 78 83
e 78 86
e 78 90
e 78 91
e 78 99
e 79 80
e 79 81
e 79 83
e 79 86
e 79 87
e 79 91
e 79 93
e 79 96
e 79 99
e 79 100
e 80 81
e 80 82
e 80 84
e 80 85
e 80 86
e 80 87
e 80 89
e 80 92
e 80 94
e 80 97
e 80 99
e 80 100
e 81 82
e 81 83
e 81 85
e 81 87
e 81 88
e 81 90
e 81 92
e 81 93
e 81 94
e 81 95
e 82 83
e 82 84
e 82 85
e 82 89
e 82 90
e 82 94
e 82 97
e 82 98
e 82 100
e 83 85
e 83 86
e 83 87
e 83 88
e 83 91
e 83 93
e 83 94
e 83 95
e 83 97
e 83 99
e 83 100
e 84 85
e 84 90
e 84 92
e 84 95
e 84 99
e 85 86
e 85 87
e 85 88
e 85 89
e 85 90
e 85 91
e 85 92
e 85 94
e 85 95
e 85 96
e 85 98
e 86 87
e 86 91
e 86 93
e 86 95
e 86 99
e 86 100
e 87 88
e 87 89
e 87 91
e 87 92
e 87 94
e 87 96
e 87 100
e 88 90
e 88 93
e 88 94
e 88 95
e 88 98
e 88 99
e 89 90
e 89 91
e 89 92
e 89 94
e 89 97
e 89 98
e 89 99
e 90 94
e 90 95
e 90 96
e 90 98
e 91 94
e 91 97
e 91 98
e 91 99
e 92 93
e 92 94
e 92 96
e 92 98
e 92 100
e 93 94
e 93 96
e 93 97
e 93 99
e 94 95
e 94 96
e 94 97
e 94 99
e 94 100
e 95 96
e 95 98
e 96 100
e 97 98
e 97 100
e 98 99
e 98 100
e 99 100
